n = 10;

m = 16;
	
55	50	28	25	74	29	52	31	72	24	
69	39	58	20	44	64	71	12	16	19	
21	13	16	37	18	46	54	9	4	17	
48	8	6	32	26	57	41	58	9	37	
41	69	14	15	18	42	55	25	58	13	
49	33	3	27	47	52	33	42	67	16	
2	64	62	38	57	35	4	15	40	58	
58	24	27	23	17	73	69	15	2	47	
49	36	29	19	20	31	29	29	70	8	
61	68	61	73	52	12	56	68	2	12	
51	64	38	65	60	24	6	14	4	27	
64	25	66	44	17	61	2	27	48	69	
37	12	36	65	5	34	25	22	28	55	
64	64	26	66	25	32	21	61	61	67	
37	9	35	31	3	36	32	29	48	11	
41	69	14	15	18	42	55	25	58	13	

